50, 571
8, 13
28, 33
48, 53
28, 33
4, 9
42, 47
46, 51
26, 31
20, 25
18, 23
6, 11
6, 11
28, 33
10, 15
36, 41
32, 37
16, 21
32, 37
10, 15
40, 45
14, 19
42, 47
28, 33
38, 43
34, 39
36, 41
14, 19
10, 15
28, 33
14, 19
18, 23
20, 25
8, 13
4, 9
18, 23
16, 21
6, 11
8, 13
40, 45
38, 43
40, 45
28, 33
42, 47
8, 13
20, 25
12, 17
32, 37
28, 33
6, 11
6, 11
